experiments/sat_smt/run/sat-r/results/paul.res
solved=true
solvingTime=729.1234130859375
nActions=26