experiments/sat_smt/run/sat-r/results/paul.out
Timesteps: 1
s UNSATISFIABLE
real 0.18
user 0.02
sys 0.00
Timesteps: 2
s UNSATISFIABLE
real 0.22
user 0.04
sys 0.00
Timesteps: 3
s UNSATISFIABLE
real 0.17
user 0.08
sys 0.00
Timesteps: 4
s UNSATISFIABLE
real 0.35
user 0.14
sys 0.01
Timesteps: 5
s UNSATISFIABLE
real 0.43
user 0.29
sys 0.01
Timesteps: 6
s UNSATISFIABLE
real 0.68
user 0.50
sys 0.02
Timesteps: 7
s UNSATISFIABLE
real 1.15
user 0.94
sys 0.02
Timesteps: 8
s UNSATISFIABLE
real 2.29
user 2.05
sys 0.03
Timesteps: 9
s UNSATISFIABLE
real 5.26
user 4.99
sys 0.03
Timesteps: 10
s UNSATISFIABLE
real 10.17
user 9.82
sys 0.03
Timesteps: 11
s UNSATISFIABLE
real 22.95
user 22.09
sys 0.06
Timesteps: 12
s UNSATISFIABLE
real 26.95
user 26.00
sys 0.06
Timesteps: 13
s UNSATISFIABLE
real 33.40
user 32.32
sys 0.10
Timesteps: 14
s UNSATISFIABLE
real 28.72
user 27.62
sys 0.09
Timesteps: 15
s UNSATISFIABLE
real 37.37
user 36.19
sys 0.11
Timesteps: 16
s UNSATISFIABLE
real 41.24
user 39.94
sys 0.11
Timesteps: 17
s UNSATISFIABLE
real 30.21
user 29.02
sys 0.10
Timesteps: 18
s UNSATISFIABLE
real 25.39
user 24.40
sys 0.09
Timesteps: 19
s UNSATISFIABLE
real 44.73
user 43.99
sys 0.11
Timesteps: 20
s UNSATISFIABLE
real 36.75
user 36.04
sys 0.10
Timesteps: 21
s UNSATISFIABLE
real 51.05
user 50.21
sys 0.15
Timesteps: 22
s UNSATISFIABLE
real 40.99
user 40.20
sys 0.12
Timesteps: 23
s UNSATISFIABLE
real 55.45
user 54.56
sys 0.15
Timesteps: 24
s UNSATISFIABLE
real 86.45
user 85.35
sys 0.21
Timesteps: 25
s UNSATISFIABLE
real 71.37
user 70.25
sys 0.19
Timesteps: 26
s SATISFIABLE
real 82.28
user 81.15
sys 0.21
